118 146 173 175 157 257
181 117 122 131 146 193
127 144 150 211 233 204
170 137 135 161 147 213
168 198 140 126 119 193
115 189 154 137 138 223
121 128 140 200 225 244
145 178 151 150 122 206
149 140 111 152 227 162
113 171 118 166 214 247
